(set-info :Origin "This instance was generated by: BanditFuzz-- an RL fuzzer for SMT solvers" )
(set-info :Author "Joe Scott, Fed Mora, Vijay Ganesh" )
(set-info :Contact "Joe Scott, joseph.scott@uwaterloo.ca")
; solvers/z3.sh
; 	time => 0.04299354553222656
; 	answer => err
; solvers/cvc4.sh
; 	time => 0.04553532600402832
; 	answer => err
(set-logic QF_NIA)
(declare-const bool_0 Bool)
(declare-const bool_1 Bool)
(declare-const bool_2 Bool)
(declare-const bool_3 Bool)
(declare-const bool_4 Bool)
(declare-const int_0 Int)
(declare-const int_1 Int)
(declare-const int_2 Int)
(declare-const int_3 Int)
(declare-const int_4 Int)
(assert (not (or (<= 494655527 int_0) (> int_4 int_3))))
(assert (or (< (- 681289273 int_3) (- 205144008 (- 193436026))) (and (or true true) (xor bool_0 bool_1))))
(assert (xor (not (>= int_2 int_4)) (< (- int_3 int_3) (mod (- 524590625) int_3))))
(assert (and (> (mod int_1 int_4) (/ int_3 697675260)) (<= (- (- 56600278) (- 862230748)) (- (- 584022676) int_1))))
(assert (< (- (- int_4)) (- (mod (- 193469363) int_0))))
(check-sat)
(exit)
